p cnf 17 44
1 2 3 0
1 2 4 0
1 3 4 0
2 3 4 0
5 6 7 0
8 9 10 0
8 9 0
8 10 0
9 10 0
11 12 13 0
14 15 16 0
14 15 17 0
14 16 17 0
15 16 17 0
-1 -5 -8 -11 0
-1 -5 -8 -14 0
-1 -5 -11 -14 0
-1 -8 -11 -14 0
-5 -8 -11 -14 0
-2 -6 -9 0
-2 -6 -9 -15 0
-2 -6 -15 0
-2 -9 -15 0
-6 -9 -15 0
-3 -7 -10 0
-3 -7 -12 0
-3 -7 -16 0
-3 -10 -12 0
-3 -10 -16 0
-3 -12 -16 0
-3 -7 -10 -12 0
-3 -7 -10 -16 0
-3 -7 -12 -16 0
-3 -10 -12 -16 0
-7 -10 -12 0
-7 -10 -16 0
-7 -12 -16 0
-10 -12 -16 0
-7 -10 -12 -16 0
-4 -13 0
-4 -17 0
-4 -13 -17 0
-4 -13 -17 0
-13 -17 0
